10J3M/DAT/10J3MNLX-10.dat
10 3
18.2781 4.2753
35.4259 5.952
19.1417 4.3751
24.1974 4.9191
20.5179 4.5297
26.0601 5.1049
25.7121 5.0707
21.5685 4.6442
27.9835 5.2899
30.7127 5.5419
16.5676