10J3M/SOL/10J3MNLX-10.sol
solution status: optimal solution found
objective value:                     87.6014361294826
x#1#1                               0.743086361137504 	(obj:0)
x#1#3                               0.256913638862496 	(obj:0)
x#2#3                                               1 	(obj:0)
x#3#1                                               1 	(obj:0)
x#4#2                               0.700839444114509 	(obj:0)
x#4#3                               0.299135020276086 	(obj:0)
x#5#1                               0.350921101373619 	(obj:0)
x#5#2                               0.649078898626381 	(obj:0)
x#6#2                                               1 	(obj:0)
x#7#1                                               1 	(obj:0)
x#8#1                               0.217057342898503 	(obj:0)
x#8#3                               0.782942657101497 	(obj:0)
x#9#3                                               1 	(obj:0)
x#10#2                                              1 	(obj:0)
z                                    87.6014361294826 	(obj:1)
